50 976
299 796 429 65 623 702 999 401 196 904 204 720 408 327 148 617 611 15 320 679 791 604 801 893 246 44 973 821 63 94 386 805 505 612 241 570 150 700 564 897 713 595 39 848 304 168 658 634 978 127 
345 693 467 100 141 291 670 781 46 59 357 100 493 661 206 254 310 425 258 407 614 313 901 496 350 121 795 617 439 104 795 141 525 414 45 762 749 518 637 976 416 523 247 759 416 644 395 379 216 657 
